#######################################
### Exact MIP solver for the HHCRSP ###
#######################################
-- Instance file: new-instances/HHCRSP_400_80_70_1.2_R_C.txt
-- Max threads: 4
-- Time limit: 999999 seconds
-- Use initial solution: No
Trivial flow violations prevented generating 2799356 variables.
Version identifier: 20.1.0.0 | 2020-11-10 | 9bedb6d68
CPXPARAM_Threads                                 4
CPXPARAM_Emphasis_Memory                         1
CPXPARAM_TimeLimit                               999999
Tried aggregator 1 time.
Presolve has eliminated 85986 rows and 20159 columns...
LP Presolve eliminated 85986 rows and 20159 columns.
Reduced LP has 3174984 rows, 3008312 columns, and 92421861 nonzeros.
Presolve time = 102.75 sec. (19610.86 ticks)
Compression time = 23.05 sec. (6.00 ticks)
Compression reduced 1328.02 MB A matrix to 399.12 MB
Symmetry aggregator did 5445933 additional substitutions.
Initializing dual steep norms . . .
Elapsed time = 127.69 sec. (20359.66 ticks, 1 iterations)

Iteration log . . .
Iteration:     1   Dual objective     =             0.333333
Perturbation started.
Iteration:   505   Dual objective     =           135.333333
Iteration:  2104   Dual objective     =           312.666676
Removing perturbation.

Dual crossover.
  Dual:  Fixing 2496 variables.
     2495 DMoves:  Infeasibility  7.51859686e-12  Objective  3.13666667e+02
        0 DMoves:  Infeasibility  1.75566968e-12  Objective  3.13666667e+02
  Dual:  Pushed 51, exchanged 2445.
  Primal:  Fixing 2044 variables.
     2043 PMoves:  Infeasibility  0.00000000e+00  Objective  3.13666667e+02
        0 PMoves:  Infeasibility  0.00000000e+00  Objective  3.13666667e+02
  Primal:  Pushed 1884, exchanged 160.

Solution status from MIP model:
-- Processing time: 174.43 sec.
-- Memory used: 2060.37 MB
-- Best bound: inf
-- Obj value: 313.667
-- Gap: inf%
-- Total distance: 941
-- Total tardiness: 0
-- Largest tardiness: 0
